
<<< setup


<<< generate

Tried aggregator 1 time.
MIP Presolve eliminated 0 rows and 1 columns.
MIP Presolve modified 29 coefficients.
Reduced MIP has 764 rows, 642 columns, and 3398 nonzeros.
Reduced MIP has 560 binaries, 0 generals, 0 SOSs, and 0 indicators.
Presolve time = 0,00 sec. (2,37 ticks)
Found incumbent of value 1,000000 after 0,01 sec. (5,25 ticks)
Probing time = 0,01 sec. (2,94 ticks)
Tried aggregator 1 time.
Reduced MIP has 764 rows, 642 columns, and 3398 nonzeros.
Reduced MIP has 560 binaries, 0 generals, 0 SOSs, and 0 indicators.
Presolve time = 0,00 sec. (1,62 ticks)
Probing time = 0,00 sec. (2,89 ticks)
Clique table members: 2292.
MIP emphasis: balance optimality and feasibility.
MIP search method: dynamic search.
Parallel mode: deterministic, using up to 4 threads.
Root relaxation solution time = 0,01 sec. (9,51 ticks)

        Nodes                                         Cuts/
   Node  Left     Objective  IInf  Best Integer    Best Bound    ItCnt     Gap

*     0+    0                            1,0000       40,0000      346     --- 
      0     0       40,0000   225        1,0000       40,0000      346     --- 
*     0+    0                           39,0000       40,0000      346    2,56%
*     0+    0                           40,0000       40,0000      346    0,00%
      0     0        cutoff             40,0000       40,0000      346    0,00%
Elapsed time = 0,33 sec. (119,36 ticks, tree = 0,00 MB, solutions = 3)

Root node processing (before b&c):
  Real time             =    0,33 sec. (119,39 ticks)
Parallel b&c, 4 threads:
  Real time             =    0,00 sec. (0,00 ticks)
  Sync time (average)   =    0,00 sec.
  Wait time (average)   =    0,00 sec.
                          ------------
Total (root+branch&cut) =    0,33 sec. (119,39 ticks)

<<< solve


OBJECTIVE: 40

x[1][1] = 1 x[1][2] = 1 x[1][3] = 1 x[1][4] = 1 x[1][5] = 1 x[1][6] = 1 x[1][7] = 1 x[1][8] = 1 
x[2][1] = 1 x[2][2] = 1 x[2][3] = 1 x[2][4] = 1 x[2][5] = 1 x[2][6] = 1 x[2][7] = 1 x[2][8] = 1 
x[3][1] = 1 x[3][2] = 1 x[3][3] = 1 x[3][4] = 1 x[3][5] = 1 x[3][6] = 1 x[3][7] = 1 x[3][8] = 1 
x[4][1] = 1 x[4][2] = 1 x[4][3] = 1 x[4][4] = 1 x[4][5] = 1 x[4][6] = 1 x[4][7] = 1 x[4][8] = 1 
x[5][1] = 1 x[5][2] = 1 x[5][3] = 1 x[5][4] = 1 x[5][5] = 1 x[5][6] = 1 x[5][7] = 1 x[5][8] = 1 


<<< post process


<<< done

